experiment/data/lkh-res/Vrp-Set-E-n76/Vrp-Set-E-n76-lkh/2.lkh1.log
PARAMETER_FILE = baseline_results/cvrp_lkh/Vrp-Set-E-n76/Vrp-Set-E-n76-lkh/2.lkh1.par
Reading PROBLEM_FILE: "baseline_results/cvrp_lkh/Vrp-Set-E-n76/Vrp-Set-E-n76-lkh/2.lkh1.vrp" ... done
ASCENT_CANDIDATES = 50
BACKBONE_TRIALS = 0
BACKTRACKING = NO
# BWTSP =
# CANDIDATE_FILE =
CANDIDATE_SET_TYPE = ALPHA
# DISTANCE =
DEPOT = 1
# EDGE_FILE =
EXCESS = 0.0131579
EXTERNAL_SALESMEN = 0
EXTRA_CANDIDATES = 0 
EXTRA_CANDIDATE_SET_TYPE = QUADRANT
GAIN23 = NO
GAIN_CRITERION = YES
INITIAL_PERIOD = 100
INITIAL_STEP_SIZE = 1
INITIAL_TOUR_ALGORITHM = WALK
# INITIAL_TOUR_FILE = 
INITIAL_TOUR_FRACTION = 1.000
# INPUT_TOUR_FILE = 
KICK_TYPE = 4
KICKS = 1
# MAX_BREADTH =
MAKESPAN = NO
MAX_CANDIDATES = 5 
MAX_SWAPS = 0
MAX_TRIALS = 10000
# MERGE_TOUR_FILE =
MOVE_TYPE = 5 SPECIAL
MTSP_MIN_SIZE = 1
MTSP_MAX_SIZE = 75
# MTSP_SOLUTION_FILE = 
# NONSEQUENTIAL_MOVE_TYPE = 5
# OPTIMUM =
OUTPUT_TOUR_FILE = baseline_results/cvrp_lkh/Vrp-Set-E-n76/Vrp-Set-E-n76-lkh/2.lkh1.tour
PATCHING_A = 1 
PATCHING_C = 0 
# PI_FILE = 
POPMUSIC_INITIAL_TOUR = NO
POPMUSIC_MAX_NEIGHBORS = 5
POPMUSIC_SAMPLE_SIZE = 10
POPMUSIC_SOLUTIONS = 50
POPMUSIC_TRIALS = 1
POPULATION_SIZE = 10
PRECISION = 100
PROBLEM_FILE = baseline_results/cvrp_lkh/Vrp-Set-E-n76/Vrp-Set-E-n76-lkh/2.lkh1.vrp
RECOMBINATION = IPT
RESTRICTED_SEARCH = YES
RUNS = 1
SALESMEN = 7
SCALE = 1
SEED = 1234
# SINTEF_SOLUTION_FILE = 
STOP_AT_OPTIMUM = YES
SUBGRADIENT = YES
# SUBPROBLEM_SIZE =
# SUBPROBLEM_TOUR_FILE = 
SUBSEQUENT_MOVE_TYPE = 5 SPECIAL
SUBSEQUENT_PATCHING = YES
# TIME_LIMIT =
# TOTAL_TIME_LIMIT =
# TOUR_FILE = 
TRACE_LEVEL = 1
VEHICLES = 7

Lower bound = 59395.0, Ascent time = 0.02 sec.
Cand.min = 5, Cand.avg = 5.0, Cand.max = 5
Preprocessing time = 0.02 sec.
* 1: Cost = 0_72318, Time = 0.01 sec. 
Writing OUTPUT_TOUR_FILE: "baseline_results/cvrp_lkh/Vrp-Set-E-n76/Vrp-Set-E-n76-lkh/2.lkh1.tour" ... done
* 3: Cost = 0_72092, Time = 0.01 sec. 
Writing OUTPUT_TOUR_FILE: "baseline_results/cvrp_lkh/Vrp-Set-E-n76/Vrp-Set-E-n76-lkh/2.lkh1.tour" ... done
* 6: Cost = 0_71934, Time = 0.02 sec. 
Writing OUTPUT_TOUR_FILE: "baseline_results/cvrp_lkh/Vrp-Set-E-n76/Vrp-Set-E-n76-lkh/2.lkh1.tour" ... done
* 12: Cost = 0_71208, Time = 0.03 sec. 
Writing OUTPUT_TOUR_FILE: "baseline_results/cvrp_lkh/Vrp-Set-E-n76/Vrp-Set-E-n76-lkh/2.lkh1.tour" ... done
* 15: Cost = 0_71013, Time = 0.04 sec. 
Writing OUTPUT_TOUR_FILE: "baseline_results/cvrp_lkh/Vrp-Set-E-n76/Vrp-Set-E-n76-lkh/2.lkh1.tour" ... done
* 22: Cost = 0_70979, Time = 0.05 sec. 
Writing OUTPUT_TOUR_FILE: "baseline_results/cvrp_lkh/Vrp-Set-E-n76/Vrp-Set-E-n76-lkh/2.lkh1.tour" ... done
* 37: Cost = 0_70865, Time = 0.07 sec. 
Writing OUTPUT_TOUR_FILE: "baseline_results/cvrp_lkh/Vrp-Set-E-n76/Vrp-Set-E-n76-lkh/2.lkh1.tour" ... done
* 43: Cost = 0_70705, Time = 0.08 sec. 
Writing OUTPUT_TOUR_FILE: "baseline_results/cvrp_lkh/Vrp-Set-E-n76/Vrp-Set-E-n76-lkh/2.lkh1.tour" ... done
* 45: Cost = 0_70601, Time = 0.08 sec. 
Writing OUTPUT_TOUR_FILE: "baseline_results/cvrp_lkh/Vrp-Set-E-n76/Vrp-Set-E-n76-lkh/2.lkh1.tour" ... done
* 63: Cost = 0_70464, Time = 0.12 sec. 
Writing OUTPUT_TOUR_FILE: "baseline_results/cvrp_lkh/Vrp-Set-E-n76/Vrp-Set-E-n76-lkh/2.lkh1.tour" ... done
* 64: Cost = 0_70456, Time = 0.12 sec. 
Writing OUTPUT_TOUR_FILE: "baseline_results/cvrp_lkh/Vrp-Set-E-n76/Vrp-Set-E-n76-lkh/2.lkh1.tour" ... done
* 73: Cost = 0_69865, Time = 0.15 sec. 
Writing OUTPUT_TOUR_FILE: "baseline_results/cvrp_lkh/Vrp-Set-E-n76/Vrp-Set-E-n76-lkh/2.lkh1.tour" ... done
* 76: Cost = 0_69721, Time = 0.15 sec. 
Writing OUTPUT_TOUR_FILE: "baseline_results/cvrp_lkh/Vrp-Set-E-n76/Vrp-Set-E-n76-lkh/2.lkh1.tour" ... done
* 5273: Cost = 0_69595, Time = 7.71 sec. 
Writing OUTPUT_TOUR_FILE: "baseline_results/cvrp_lkh/Vrp-Set-E-n76/Vrp-Set-E-n76-lkh/2.lkh1.tour" ... done
* 5280: Cost = 0_69332, Time = 7.73 sec. 
Writing OUTPUT_TOUR_FILE: "baseline_results/cvrp_lkh/Vrp-Set-E-n76/Vrp-Set-E-n76-lkh/2.lkh1.tour" ... done
* 5296: Cost = 0_69314, Time = 7.75 sec. 
Writing OUTPUT_TOUR_FILE: "baseline_results/cvrp_lkh/Vrp-Set-E-n76/Vrp-Set-E-n76-lkh/2.lkh1.tour" ... done
* 5316: Cost = 0_69226, Time = 7.77 sec. 
Writing OUTPUT_TOUR_FILE: "baseline_results/cvrp_lkh/Vrp-Set-E-n76/Vrp-Set-E-n76-lkh/2.lkh1.tour" ... done
Population:
  1: 0_69226
Run 1: Cost = 0_69226, Time = 13.16 sec. 

Successes/Runs = 0/1 
Cost.min = 69226, Cost.avg = 69226.00, Cost.max = 69226
Gap.min = 0.0000%, Gap.avg = 0.0000%, Gap.max = 0.0000%
Penalty.min = 0, Penalty.avg = 0.00, Penalty.max = 0
Trials.min = 10000, Trials.avg = 10000.0, Trials.max = 10000
Time.min = 13.16 sec., Time.avg = 13.16 sec., Time.max = 13.16 sec.
Time.total = 13.18 sec.
  Size.min = 5, Size.max = 14, Penalty = 0
  Cost.min = 3649, Cost.max = 12993, Cost.sum = 69226
Best CVRP solution:
  Cost = 0_69226

