experiment/data/lkh-res/Vrp-Set-E-n76/Vrp-Set-E-n76-lkh/2.lkh1.tour
NAME : 2.69226.tour
COMMENT : Length = 69226
COMMENT : Found by LKH-3 [Keld Helsgaun] Tue Apr  9 01:53:42 2024
TYPE : TOUR
DIMENSION : 82
TOUR_SECTION
1
46
30
38
21
71
61
72
70
37
48
22
62
29
75
80
69
3
63
23
65
43
42
44
2
74
34
7
82
8
54
15
60
12
67
66
39
27
77
68
35
53
28
5
79
41
40
10
26
56
32
11
59
73
13
81
18
4
45
33
51
19
25
50
57
24
64
17
52
78
47
9
36
20
55
14
58
16
6
49
31
76
-1
EOF
